Route #1: 98 91 89 71 81 104 63 28 103 138 122 76 56
Route #2: 133 107 132 93 130 127 64 106 77 43 46 55 18 1 21
Route #3: 75 82 105 111 86 33 135 102 100 67 42 59 60
Route #4: 14 134 40 37 17 11 47 119 128 101 116 68 83 136
Route #5: 54 73 120 78 92 41 80 58 35 109 45 20 121
Route #6: 88 70 131 38 69 94 108 22 112 9 26 23 4 62
Route #7: 124 10 74 50 123 27 115 34 31 97 13 110 79
Route #8: 3 7 30 84 51 39 15 8 57 44 72 117 2 99 29
Route #9: 65 48 66 19 61 6 5 96 53 129 49 113 90 12
Route #10: 16 32 118 114 137 25 125 36 24 85 95 126 52 87
Cost 14601
